VARIABLES = "X", "Y", "sigma_xx", "sigma_yy", "sigma_xy", "sigma_vonMises"

ZONE N=678, E=1327, F=FEPOINT, ET=TRIANGLE, T="t=0"

   0.1268   0.1119   0.2886   1.1585   0.1838   1.0920 
   0.4732   0.1119   0.2492   1.0270   0.1136   0.9485 
   0.4732   0.4175   0.0722   0.9739   0.0730   0.9484 
   0.1268   0.4175   0.1117   1.1055   0.1432   1.0829 
   0.7268   0.1119   0.2599   0.9817   0.0861   0.8935 
   1.0732   0.1119   0.2556   0.9674   0.0448   0.8717 
   1.0732   0.4175   0.1516   0.9362   0.0404   0.8732 
   0.7268   0.4175   0.1559   0.9505   0.0817   0.8942 
   1.3268   0.1119   0.2586   0.9635   0.0181   0.8643 
   1.6732   0.1119   0.2586   0.9634  -0.0182   0.8642 
   1.6732   0.4175   0.1671   0.9360  -0.0182   0.8652 
   1.3268   0.4175   0.1672   0.9361   0.0180   0.8652 
   1.9268   0.1119   0.2556   0.9672  -0.0449   0.8716 
   2.2732   0.1119   0.2599   0.9816  -0.0861   0.8934 
   2.2732   0.4175   0.1561   0.9504  -0.0817   0.8940 
   1.9268   0.4175   0.1518   0.9361  -0.0405   0.8730 
   2.5268   0.1119   0.2492   1.0270  -0.1136   0.9485 
   2.8732   0.1119   0.2887   1.1587  -0.1837   1.0921 
   2.8732   0.4175   0.1118   1.1056  -0.1431   1.0829 
   2.5268   0.4175   0.0723   0.9739  -0.0729   0.9483 
   0.1268   0.6413   0.0139   0.9817   0.0169   0.9752 
   0.4732   0.6413   0.0210   1.0053   0.0149   0.9952 
   0.4732   0.9469   0.0160   1.0037   0.0221   0.9966 
   0.1268   0.9469   0.0089   0.9802   0.0241   0.9766 
   0.7268   0.6413   0.1205   1.0346   0.0600   0.9855 
   1.0732   0.6413   0.1130   1.0096   0.0290   0.9595 
   1.0732   0.9469   0.0348   0.9862   0.0213   0.9700 
   0.7268   0.9469   0.0423   1.0112   0.0523   0.9948 
   1.3268   0.6413   0.1305   1.0065   0.0161   0.9484 
   1.6732   0.6413   0.1304   1.0062  -0.0164   0.9482 
   1.6732   0.9469   0.0483   0.9816  -0.0165   0.9587 
   1.3268   0.9469   0.0484   0.9819   0.0160   0.9590 
   1.9268   0.6413   0.1132   1.0092  -0.0291   0.9590 
   2.2732   0.6413   0.1206   1.0342  -0.0600   0.9849 
   2.2732   0.9469   0.0427   1.0108  -0.0523   0.9943 
   1.9268   0.9469   0.0352   0.9858  -0.0214   0.9694 
   2.5268   0.6413   0.0210   1.0050  -0.0147   0.9950 
   2.8732   0.6413   0.0142   0.9822  -0.0167   0.9756 
   2.8732   0.9469   0.0092   0.9807  -0.0237   0.9770 
   2.5268   0.9469   0.0160   1.0035  -0.0217   0.9963 
   0.1268   1.1707  -0.0031   0.9576   0.0046   0.9592 
   0.4732   1.1707   0.0065   0.9897   0.0004   0.9865 
   0.4732   1.4764  -0.0041   0.9865   0.0103   0.9888 
   0.1268   1.4764  -0.0138   0.9544   0.0145   0.9617 
   0.7268   1.1707   0.0010   1.0069   0.0286   1.0076 
   1.0732   1.1707   0.0083   1.0313   0.0119   1.0274 
   1.0732   1.4764  -0.0337   1.0187   0.0194   1.0365 
   0.7268   1.4764  -0.0410   0.9943   0.0361   1.0174 
   1.3268   1.1707   0.0157   1.0415   0.0137   1.0340 
   1.6732   1.1707   0.0156   1.0413  -0.0140   1.0338 
   1.6732   1.4764  -0.0542   1.0203  -0.0141   1.0487 
   1.3268   1.4764  -0.0541   1.0206   0.0136   1.0490 
   1.9268   1.1707   0.0084   1.0307  -0.0120   1.0267 
   2.2732   1.1707   0.0009   1.0057  -0.0290   1.0065 
   2.2732   1.4764  -0.0419   0.9929  -0.0367   1.0164 
   1.9268   1.4764  -0.0344   1.0178  -0.0197   1.0360 
   2.5268   1.1707   0.0063   0.9891  -0.0001   0.9859 
   2.8732   1.1707  -0.0026   0.9592  -0.0045   0.9605 
   2.8732   1.4764  -0.0137   0.9559  -0.0137   0.9631 
   2.5268   1.4764  -0.0048   0.9857  -0.0093   0.9882 
   0.1268   1.7001  -0.0290   0.9176   0.0270   0.9336 
   0.4732   1.7001  -0.0146   0.9655   0.0262   0.9740 
   0.4732   2.0058  -0.0166   0.9650   0.0410   0.9760 
   0.1268   2.0058  -0.0310   0.9170   0.0418   0.9357 
   0.7268   1.7001  -0.0721   0.9902   0.0550   1.0325 
   1.0732   1.7001  -0.0488   1.0680   0.0362   1.0950 
   1.0732   2.0058  -0.0963   1.0538   0.0602   1.1099 
   0.7268   2.0058  -0.1196   0.9759   0.0790   1.0499 
   1.3268   1.7001  -0.0843   1.0841   0.0170   1.1291 
   1.6732   1.7001  -0.0835   1.0868  -0.0140   1.1312 
   1.6732   2.0058  -0.1618   1.0634  -0.0132   1.1530 
   1.3268   2.0058  -0.1626   1.0607   0.0178   1.1510 
   1.9268   1.7001  -0.0513   1.0705  -0.0349   1.0987 
   2.2732   1.7001  -0.0756   0.9895  -0.0568   1.0341 
   2.2732   2.0058  -0.1309   0.9730  -0.0818   1.0541 
   1.9268   2.0058  -0.1066   1.0539  -0.0599   1.1158 
   2.5268   1.7001  -0.0164   0.9650  -0.0270   0.9745 
   2.8732   1.7001  -0.0302   0.9191  -0.0291   0.9359 
   2.8732   2.0058  -0.0353   0.9175  -0.0433   0.9387 
   2.5268   2.0058  -0.0215   0.9635  -0.0412   0.9770 
   0.1268   2.2295  -0.0643   0.7921   0.0730   0.8357 
   0.4732   2.2295  -0.0280   0.9130   0.0787   0.9373 
   0.4732   2.5352  -0.0135   0.9173   0.1161   0.9457 
   0.1268   2.5352  -0.0497   0.7964   0.1103   0.8443 
   0.7268   2.2295  -0.1532   0.9731   0.1279   1.0809 
   1.0732   2.2295  -0.1015   1.1454   0.1077   1.2138 
   1.0732   2.5352  -0.1522   1.1302   0.1609   1.2451 
   0.7268   2.5352  -0.2039   0.9579   0.1811   1.1193 
   1.3268   2.2295  -0.1886   1.1843   0.0347   1.2904 
   1.6732   2.2295  -0.1818   1.2070  -0.0093   1.3075 
   1.6732   2.5352  -0.2929   1.1737  -0.0023   1.3443 
   1.3268   2.5352  -0.2998   1.1509   0.0418   1.3284 
   1.9268   2.2295  -0.1193   1.1719  -0.0986   1.2476 
   2.2732   2.2295  -0.1747   0.9872  -0.1339   1.1097 
   2.2732   2.5352  -0.2637   0.9605  -0.1909   1.1639 
   1.9268   2.5352  -0.2083   1.1452  -0.1556   1.2907 
   2.5268   2.2295  -0.0359   0.9197  -0.0886   0.9507 
   2.8732   2.2295  -0.0788   0.7768  -0.0881   0.8332 
   2.8732   2.5352  -0.0775   0.7772  -0.1322   0.8502 
   2.5268   2.5352  -0.0346   0.9201  -0.1327   0.9657 
   0.1268   2.7589  -0.1034   0.5276   0.1217   0.6229 
   0.4732   2.7589  -0.0250   0.7888   0.1481   0.8417 
   0.4732   3.0646   0.0416   0.8088   0.2288   0.8828 
   0.1268   3.0646  -0.0368   0.5476   0.2024   0.6665 
   0.7268   2.7589  -0.2310   0.9286   0.2427   1.1432 
   1.0732   2.7589  -0.1278   1.2727   0.2410   1.4046 
   1.0732   3.0646  -0.1320   1.2715   0.3472   1.4709 
   0.7268   3.0646  -0.2352   0.9274   0.3489   1.2242 
   1.3268   2.7589  -0.3119   1.3686   0.0836   1.5551 
   1.6732   2.7589  -0.2790   1.4783   0.0355   1.6369 
   1.6732   3.0646  -0.4004   1.4419   0.0694   1.6825 
   1.3268   3.0646  -0.4333   1.3322   0.1175   1.6066 
   1.9268   2.7589  -0.2009   1.4102  -0.2041   1.5612 
   2.2732   2.7589  -0.3162   1.0260  -0.2547   1.2930 
   2.2732   3.0646  -0.4438   0.9878  -0.3734   1.4245 
   1.9268   3.0646  -0.3285   1.3720  -0.3228   1.6593 
   2.5268   2.7589  -0.0496   0.8361  -0.1980   0.9277 
   2.8732   2.7589  -0.1774   0.4100  -0.1863   0.6136 
   2.8732   3.0646  -0.1479   0.4189  -0.3179   0.7500 
   2.5268   3.0646  -0.0200   0.8450  -0.3296   1.0282 
   0.1268   3.2883  -0.0804   0.1814   0.1195   0.3111 
   0.4732   3.2883   0.0176   0.5079   0.1720   0.5814 
   0.4732   3.5940   0.1499   0.5476   0.2728   0.6808 
   0.1268   3.5940   0.0520   0.2211   0.2203   0.4309 
   0.7268   3.2883  -0.2214   0.7549   0.3752   1.0992 
   1.0732   3.2883  -0.0323   1.3854   0.4549   1.6081 
   1.0732   3.5940   0.1688   1.4457   0.6496   1.7722 
   0.7268   3.5940  -0.0203   0.8153   0.5699   1.2868 
   1.3268   3.2883  -0.4064   1.6227   0.2135   1.8959 
   1.6732   3.2883  -0.2807   2.0416   0.1899   2.2200 
   1.6732   3.5940  -0.3404   2.0237   0.3193   2.2817 
   1.3268   3.5940  -0.4661   1.6048   0.3429   1.9732 
   1.9268   3.2883  -0.2188   1.9303  -0.3761   2.1495 
   2.2732   3.2883  -0.4616   1.1212  -0.3943   1.5665 
   2.2732   3.5940  -0.5076   1.1074  -0.6442   1.8141 
   1.9268   3.5940  -0.2649   1.9164  -0.6260   2.3294 
   2.5268   3.2883  -0.0138   0.6597  -0.3444   0.8946 
   2.8732   3.2883  -0.3077  -0.3201  -0.2825   0.5815 
   2.8732   3.5940  -0.1517  -0.2733  -0.5851   1.0408 
   2.5268   3.5940   0.1423   0.7065  -0.6470   1.2941 
   0.1268   3.8178   0.0318  -0.0114   0.0225   0.0549 
   0.4732   3.8178   0.0962   0.2034   0.0290   0.1833 
   0.4732   4.1234   0.1127   0.2084   0.0953   0.2447 
   0.1268   4.1234   0.0482  -0.0065   0.0888   0.1623 
   1.1583   4.1985   1.1977   0.9756   1.0816   2.1743 
   1.1583   3.7426   0.4140   1.7254   0.9020   2.2079 
   1.1583   4.0606   0.8073   0.5798   1.1246   2.0770 
   1.1583   3.8806   0.6658   1.4611   1.0256   2.1819 
   0.6417   4.1985   0.2148   0.3721   0.3111   0.6284 
   0.6417   3.7426  -0.0247   0.2679   0.3393   0.6514 
   0.6417   4.0606   0.3401   0.3478   0.3163   0.6470 
   0.6417   3.8806   0.2486   0.3316   0.3487   0.6739 
   1.0020   4.1985   0.6458   0.4976   0.4268   0.9433 
   1.0020   3.7426   0.1970   0.9877   0.7223   1.5443 
   1.0020   4.0606   0.5165   0.1506   0.6221   1.1717 
   1.0020   3.8806   0.4376   0.7376   0.7422   1.4372 
   0.7980   4.1985   0.3425   0.4593   0.1831   0.5210 
   0.7980   3.7426   0.0339   0.4535   0.4966   0.9651 
   0.7980   4.0606   0.3754   0.2412   0.3298   0.6595 
   0.7980   3.8806   0.2906   0.3917   0.4730   0.8918 
   1.7583   4.1985   0.7806   4.2066  -0.8890   4.1704 
   1.7583   3.7426  -0.1792   2.7562   0.3325   2.9077 
   1.7583   4.0606   0.2254   3.3717  -0.0019   3.2649 
   1.7583   3.8806  -0.1286   2.9516   0.3567   3.0805 
   1.2417   4.1985   1.4891   1.4986   1.3244   2.7375 
   1.2417   3.7426  -0.3713   1.9403   0.6019   2.3896 
   1.2417   4.0606   0.4612   1.1030   1.1331   2.1845 
   1.2417   3.8806  -0.1627   1.7800   0.7737   2.2978 
   1.6020   4.1985   0.3563   5.2891   0.4444   5.1778 
   1.6020   3.7426  -0.1611   2.8724   0.4275   3.0475 
   1.6020   4.0606   0.0942   3.8343   0.6133   3.9342 
   1.6020   3.8806  -0.1493   3.1852   0.5427   3.3952 
   1.3980   4.1985   0.7536   2.9391   1.6648   3.9123 
   1.3980   3.7426  -0.2456   2.5509   0.5552   2.8493 
   1.3980   4.0606   0.0623   2.5226   1.1194   3.1575 
   1.3980   3.8806  -0.2294   2.6408   0.7158   3.0282 
   2.3583   4.1985   0.6670   0.9708  -1.2219   2.2844 
   2.3583   3.7426  -0.5158   0.7173  -0.2545   1.1596 
   2.3583   4.0606   0.3150   0.8816  -0.8735   1.6994 
   2.3583   3.8806  -0.1051   0.7992  -0.4998   1.2179 
   1.8417   4.1985   0.5013   3.3147  -1.2399   3.7668 
   1.8417   3.7426  -0.0080   2.5787  -0.7391   2.8825 
   1.8417   4.0606   0.2656   2.8689  -0.8873   3.1466 
   1.8417   3.8806   0.1967   2.7221  -0.7235   2.9126 
   2.2020   4.1985   0.5676   1.8622  -1.2544   2.7301 
   2.2020   3.7426  -0.3480   1.3365  -0.4278   1.7092 
   2.2020   4.0606   0.2913   1.6214  -0.9052   2.1679 
   2.2020   3.8806  -0.0092   1.4569  -0.5952   1.7885 
   1.9980   4.1985   0.5496   2.8619  -1.2214   3.3756 
   1.9980   3.7426  -0.1489   2.0585  -0.6167   2.3889 
   1.9980   4.0606   0.2987   2.4163  -0.8877   2.7514 
   1.9980   3.8806   0.1178   2.2044  -0.6752   2.4456 
   2.5268   3.8178   0.1687   0.3277  -0.2966   0.5869 
   2.8732   3.8178  -0.1918  -0.8741  -0.1871   0.8592 
   2.8732   4.1234  -0.0972  -1.4913  -0.6836   1.8683 
   2.5268   4.1234   0.3871   0.1230  -0.8180   1.4577 
   0.5609   4.4655  -0.0539   0.0358  -0.0828   0.1633 
   0.0782   4.2525   0.0413  -0.0179   0.0003   0.0526 
   0.5609   4.2525   0.0684   0.0725  -0.0967   0.1818 
   0.4123   4.4043  -0.0271   0.0185  -0.0569   0.1063 
   0.2169   4.2482   0.0516   0.0088  -0.0279   0.0679 
   0.5708   4.3181   0.0313   0.0631  -0.0944   0.1724 
   0.2169   4.3181   0.0114  -0.0032  -0.0233   0.0425 
   0.4123   4.2482   0.0626   0.0454  -0.0671   0.1291 
   0.5708   4.4043  -0.0182   0.0482  -0.0888   0.1649 
   0.4438   4.3622  -0.0011   0.0317  -0.0660   0.1188 
   0.3124   4.3042   0.0248   0.0171  -0.0434   0.0783 
   0.4438   4.3042   0.0321   0.0417  -0.0698   0.1267 
   0.4000   4.3235   0.0186   0.0301  -0.0597   0.1068 
   0.5609   4.5345  -0.0552   0.0675   0.0832   0.1792 
   0.5609   4.7475   0.0668   0.1041   0.1039   0.2018 
   0.0782   4.7475   0.0266  -0.0300   0.0071   0.0505 
   0.5708   4.5957  -0.0193   0.0807   0.0911   0.1827 
   0.4123   4.7518   0.0569   0.0635   0.0745   0.1426 
   0.2169   4.6819   0.0005  -0.0027   0.0286   0.0496 
   0.5708   4.6819   0.0300   0.0955   0.0995   0.1920 
   0.2169   4.7518   0.0406   0.0093   0.0354   0.0715 
   0.4123   4.5957  -0.0325   0.0367   0.0594   0.1191 
   0.4438   4.6378  -0.0058   0.0527   0.0698   0.1331 
   0.4438   4.6958   0.0274   0.0627   0.0754   0.1415 
   0.3124   4.6958   0.0165   0.0262   0.0491   0.0880 
   0.4000   4.6765   0.0127   0.0472   0.0648   0.1199 
   0.0391   4.4828  -0.0932  -0.0649   0.0233   0.0920 
   0.0391   4.2698   0.0292  -0.0282   0.0093   0.0522 
   0.5218   4.4828  -0.0660   0.0255  -0.0738   0.1518 
   0.0292   4.4172  -0.0560  -0.0555   0.0209   0.0665 
   0.1877   4.3310   0.0024  -0.0109  -0.0166   0.0312 
   0.3831   4.4871  -0.0763  -0.0012  -0.0456   0.1094 
   0.0292   4.3310  -0.0065  -0.0406   0.0153   0.0461 
   0.3831   4.4172  -0.0362   0.0108  -0.0502   0.0968 
   0.1877   4.4871  -0.0873  -0.0378  -0.0063   0.0766 
   0.1562   4.4311  -0.0569  -0.0341  -0.0037   0.0500 
   0.1562   4.3731  -0.0236  -0.0241  -0.0075   0.0271 
   0.2876   4.4311  -0.0495  -0.0095  -0.0301   0.0692 
   0.2000   4.4118  -0.0433  -0.0225  -0.0137   0.0445 
   0.0391   4.5172  -0.1086  -0.0804  -0.0231   0.1055 
   0.5218   4.5172  -0.0684   0.0536   0.0737   0.1659 
   0.0391   4.7302   0.0134  -0.0438  -0.0024   0.0520 
   0.1877   4.5129  -0.0987  -0.0399   0.0063   0.0867 
   0.3831   4.5828  -0.0424   0.0264   0.0523   0.1086 
   0.0292   4.6690  -0.0225  -0.0571  -0.0103   0.0529 
   0.3831   4.5129  -0.0824   0.0144   0.0455   0.1199 
   0.1877   4.6690  -0.0093  -0.0131   0.0215   0.0390 
   0.0292   4.5828  -0.0718  -0.0719  -0.0187   0.0788 
   0.1562   4.5689  -0.0692  -0.0390   0.0054   0.0608 
   0.2876   4.5689  -0.0583  -0.0025   0.0318   0.0793 
   0.1562   4.6269  -0.0360  -0.0290   0.0111   0.0382 
   0.2000   4.5882  -0.0545  -0.0235   0.0161   0.0549 
   1.1609   4.4655  -0.1617   0.1161   0.1351   0.3363 
   0.6782   4.2525   0.0857   0.0819   0.1068   0.2031 
   1.1609   4.2525   1.1610   0.4802   1.1153   2.1801 
   1.0123   4.4043   0.0498   0.0924   0.0119   0.0827 
   0.8169   4.2482   0.1860   0.0686   0.0778   0.2114 
   1.1708   4.3181   1.1271   0.1341   0.8898   1.8741 
   0.8169   4.3181   0.1006   0.0245   0.0084   0.0920 
   1.0123   4.2482   0.5139   0.0561   0.3922   0.8366 
   1.1708   4.4043   0.6518   0.2159   0.4438   0.9600 
   1.0438   4.3622   0.3163   0.0192   0.1567   0.4100 
   0.9124   4.3042   0.2154  -0.0105   0.0642   0.2472 
   1.0438   4.3042   0.5009  -0.0439   0.3246   0.7687 
   1.0000   4.3235   0.3286  -0.0349   0.1570   0.4411 
   1.1609   4.5345  -0.3998   0.1290  -0.0152   0.4782 
   1.1609   4.7475   1.1078   0.9557  -0.9730   1.9804 
   0.6782   4.7475   0.0614   0.1251  -0.0819   0.1785 
   1.1708   4.5957   0.3463  -0.0185  -0.3323   0.6767 
   1.0123   4.7518   0.5102   0.3711  -0.3263   0.7267 
   0.8169   4.6819   0.1358  -0.0206   0.0439   0.1657 
   1.1708   4.6819   0.8154  -0.0731  -0.8399   1.6871 
   0.8169   4.7518   0.3089   0.2477  -0.0036   0.2834 
   1.0123   4.5957  -0.0351   0.0095   0.0325   0.0695 
   1.0438   4.6378   0.1580  -0.1455  -0.1254   0.3411 
   1.0438   4.6958   0.3475  -0.1026  -0.3028   0.6649 
   0.9124   4.6958   0.2345  -0.0236  -0.0141   0.2483 
   1.0000   4.6765   0.2333  -0.1313  -0.1268   0.3880 
   0.6391   4.4828   0.0026   0.0073   0.0936   0.1622 
   0.6391   4.2698   0.0730   0.0765   0.1389   0.2520 
   1.1218   4.4828  -0.5064  -0.0207  -0.0035   0.4964 
   0.6292   4.4172   0.0517   0.0512   0.1227   0.2187 
   0.7877   4.3310   0.0676   0.0291   0.0068   0.0599 
   0.9831   4.4871  -0.5229  -0.0357  -0.0902   0.5296 
   0.6292   4.3310   0.0742   0.0695   0.1405   0.2537 
   0.9831   4.4172  -0.0572   0.0925  -0.0338   0.1433 
   0.7877   4.4871  -0.2891  -0.1109  -0.0122   0.2535 
   0.7562   4.4311  -0.1050  -0.0155   0.0033   0.0984 
   0.7562   4.3731   0.0004   0.0218   0.0085   0.0261 
   0.8876   4.4311  -0.1650   0.0375  -0.0631   0.2163 
   0.8000   4.4118  -0.0872   0.0095  -0.0261   0.1028 
   0.6391   4.5172  -0.1171  -0.0646  -0.0260   0.1111 
   1.1218   4.5172  -0.6387   0.1402   0.0565   0.7257 
   0.6391   4.7302  -0.0412   0.0690  -0.1390   0.2594 
   0.7877   4.5129  -0.3456  -0.1920  -0.0035   0.3000 
   0.9831   4.5828  -0.1054   0.0442   0.0761   0.1873 
   0.6292   4.6690  -0.0889   0.0227  -0.1353   0.2557 
   0.9831   4.5129  -0.5137   0.1555   0.0692   0.6183 
   0.7877   4.6690   0.0811  -0.0406   0.0407   0.1285 
   0.6292   4.5828  -0.1121  -0.0144  -0.0796   0.1737 
   0.7562   4.5689  -0.1714  -0.1469   0.0244   0.1660 
   0.8876   4.5689  -0.1782  -0.0241   0.0937   0.2332 
   0.7562   4.6269  -0.0371  -0.0940   0.0307   0.0978 
   0.8000   4.5882  -0.1200  -0.1132   0.0615   0.1580 
   1.4609   4.4828   3.9804   0.7473   0.7302   3.8764 
   1.2195   4.4828   0.4149   0.0708  -0.2391   0.5651 
   1.2195   4.2698   1.7149   0.7705   1.1912   2.5436 
   1.3915   4.4871   0.3788   0.0427   0.4952   0.9299 
   1.2146   4.4172   1.0099   0.3194   0.2375   0.9841 
   1.2939   4.3310   1.1639   0.4098   1.0378   2.0680 
   1.2939   4.4871   0.2877  -0.1084  -0.0054   0.3547 
   1.2146   4.3310   1.4504   0.2517   0.8510   1.9936 
   1.3915   4.4172   2.2514   0.4612   1.4559   3.2560 
   1.3438   4.4311   1.1463   0.1653   0.6200   1.5182 
   1.2781   4.4311   0.7438   0.1568   0.2417   0.7978 
   1.2781   4.3731   1.0145   0.1051   0.6733   1.5145 
   1.3000   4.4118   0.9103   0.1141   0.4818   1.1976 
   1.5000   4.4655   4.0992   8.7773   4.2856  10.6284 
   1.2586   4.2525   1.4807   1.2555   1.2505   2.5692 
   1.7414   4.2525   1.0098   4.6462  -0.8013   4.4543 
   1.4207   4.4043   2.9186   1.3452   2.2954   4.7126 
   1.4023   4.2482   1.3882   3.9984   1.8315   4.7357 
   1.6769   4.3181   1.2158   5.4066  -0.6091   5.0249 
   1.3231   4.3181   1.2923   0.8662   1.3102   2.5399 
   1.5977   4.2482   0.5829   6.6168   0.5210   6.4093 
   1.5793   4.4043   2.1670   7.5184  -0.0473   6.7034 
   1.5000   4.3622   1.4359   5.6824   2.1878   6.3680 
   1.4343   4.3042   1.6772   3.9387   2.2203   5.1487 
   1.5657   4.3042   0.5806   6.4946   0.6884   6.3378 
   1.5000   4.3235   1.1676   5.7785   1.9144   6.2452 
   1.5391   4.4828  11.6363  19.3085   0.8691  16.9058 
   1.7805   4.2698   1.0986   3.8678  -1.2477   4.0728 
   1.7805   4.4828   3.1992   3.9786  -0.3669   3.7067 
   1.6085   4.4172   2.9628   7.3196  -0.4059   6.4158 
   1.7854   4.3310   1.5735   3.7865  -1.3825   4.0730 
   1.7061   4.4871   3.1062   3.6135  -0.4350   3.4712 
   1.7061   4.3310   1.4955   4.9632  -0.8364   4.6418 
   1.7854   4.4172   2.5643   4.1427  -1.0346   4.0405 
   1.6085   4.4871   4.6824   6.7854  -0.3957   6.0551 
   1.6562   4.4311   3.1980   6.0730  -0.5897   5.3601 
   1.7219   4.3731   2.0850   4.7681  -0.9396   4.4485 
   1.7219   4.4311   2.8319   4.6763  -0.7589   4.2863 
   1.7000   4.4118   2.6746   5.1413  -0.7676   4.6479 
   1.4609   4.5172   0.6237  -0.3887   0.1565   0.9252 
   1.2195   4.7302   1.8888   1.0315  -1.0242   2.4146 
   1.2195   4.5172  -0.5791   0.0177   0.1744   0.6612 
   1.3915   4.5828   2.2507   0.8552  -1.2494   2.9249 
   1.2146   4.6690   1.0715  -0.0938  -0.6971   1.6479 
   1.2939   4.5129   0.2593   0.3792   0.1051   0.3819 
   1.2939   4.6690   0.7877  -0.1173  -0.8159   1.6503 
   1.2146   4.5828   0.2447   0.0250  -0.0966   0.2869 
   1.3915   4.5129  -0.0479  -0.5246  -0.5980   1.1511 
   1.3438   4.5689   1.1948   0.7049  -0.3999   1.2497 
   1.2781   4.6269   0.6336  -0.2002  -0.4686   1.1078 
   1.2781   4.5689   0.4924   0.3810  -0.0406   0.4527 
   1.3000   4.5882   0.7184   0.2520  -0.2643   0.7798 
   1.5000   4.5345   3.2967   7.5369  -2.6995   8.0429 
   1.7414   4.7475   1.1714   4.4893   1.0434   4.4196 
   1.2586   4.7475   1.7333   1.5424  -0.9803   2.3649 
   1.5793   4.5957   2.1391   7.3568   0.0421   6.5549 
   1.5977   4.7518   0.9299   6.8702  -0.2065   6.4655 
   1.3231   4.6819   0.9105   0.2356  -1.0526   1.9985 
   1.6769   4.6819   1.6580   5.7483   0.6777   5.2572 
   1.4023   4.7518   1.4427   3.7377  -1.2467   3.9143 
   1.4207   4.5957   2.8225   1.2482  -2.2505   4.6039 
   1.5000   4.6378   1.7316   5.3553  -2.6433   6.5853 
   1.5657   4.6958   1.2185   6.7995  -0.6752   6.3875 
   1.4343   4.6958   1.4872   3.2016  -2.0188   4.4641 
   1.5000   4.6765   1.5111   5.5370  -2.0390   6.0867 
   1.5391   4.5172  12.8537  22.5611   2.0204  19.9116 
   1.7805   4.5172   5.4708   4.2051   0.3132   4.9902 
   1.7805   4.7302   1.7355   3.7867   1.5730   4.2664 
   1.6085   4.5129   6.9392   7.5354   1.3091   7.6017 
   1.7854   4.5828   4.6977   4.9784   1.3663   5.3913 
   1.7061   4.6690   2.0933   5.3324   0.9617   4.9425 
   1.7061   4.5129   4.8573   2.7897   0.5350   4.3225 
   1.7854   4.6690   2.9229   4.2639   1.7204   4.8105 
   1.6085   4.5828   3.0931   7.3258   0.6923   6.4817 
   1.6562   4.5689   4.0094   6.2942   1.0107   5.7897 
   1.7219   4.5689   4.3060   4.9952   1.0815   5.0491 
   1.7219   4.6269   3.0654   5.2468   1.1667   4.9926 
   1.7000   4.5882   3.7334   5.5124   1.0766   5.2175 
   2.3609   4.4655   0.9964   0.7661  -0.1376   0.9345 
   1.8782   4.2525   0.8151   3.2298  -0.6166   3.0991 
   2.3609   4.2525   0.6953   0.5539   0.0431   0.6409 
   2.2123   4.4043   0.9478   1.1873  -0.1319   1.1113 
   2.0169   4.2482   0.5953   2.4239  -0.2585   2.2332 
   2.3708   4.3181   0.8642   0.6061  -0.0377   0.7711 
   2.0169   4.3181   1.0252   2.3586  -0.2586   2.0968 
   2.2123   4.2482   0.5356   1.2617  -0.0264   1.0978 
   2.3708   4.4043   0.9857   0.7036  -0.1116   0.9002 
   2.2438   4.3622   0.8717   1.0892  -0.1088   1.0160 
   2.1124   4.3042   0.7844   1.7841  -0.1580   1.5728 
   2.2438   4.3042   0.7338   1.0994  -0.0669   0.9767 
   2.2000   4.3235   0.7888   1.3010  -0.1057   1.1499 
   2.3609   4.5345   1.8213   1.1520  -0.0533   1.5983 
   2.3609   4.7475   1.1122   0.7364  -0.2147   1.0481 
   1.8782   4.7475   1.3209   3.1979   0.7440   3.0672 
   2.3708   4.5957   1.7388   1.0738  -0.0443   1.5216 
   2.2123   4.7518   1.0541   1.5225  -0.1026   1.3623 
   2.0169   4.6819   1.7281   2.5998   0.1376   2.3042 
   2.3708   4.6819   1.4508   0.8789  -0.1120   1.2805 
   2.0169   4.7518   1.1512   2.6584   0.2447   2.3477 
   2.2123   4.5957   1.6012   1.2423  -0.0454   1.4574 
   2.2438   4.6378   1.5256   1.2590  -0.0503   1.4140 
   2.2438   4.6958   1.3361   1.3298  -0.0811   1.3404 
   2.1124   4.6958   1.4407   2.0278   0.0212   1.8076 
   2.2000   4.6765   1.4287   1.5086  -0.0474   1.4726 
   1.8391   4.4828   2.7993   3.6860   0.0319   3.3328 
   1.8391   4.2698   1.0888   3.4131  -0.7479   3.2858 
   2.3218   4.4828   0.9652   0.8301  -0.1339   0.9345 
   1.8292   4.4172   2.8380   3.9414  -0.2148   3.5414 
   1.9877   4.3310   1.1849   2.5416  -0.2868   2.2581 
   2.1831   4.4871   0.9922   1.1610  -0.1153   1.1047 
   1.8292   4.3310   1.9614   3.6169  -0.5972   3.3022 
   2.1831   4.4172   0.9851   1.2905  -0.1388   1.1926 
   1.9877   4.4871   1.5341   2.1414  -0.0777   1.9163 
   1.9562   4.4311   1.7248   2.6226  -0.1721   2.3277 
   1.9562   4.3731   1.5413   2.7310  -0.2705   2.4174 
   2.0876   4.4311   1.1668   1.7220  -0.1536   1.5454 
   2.0000   4.4118   1.4527   2.3316  -0.1933   2.0668 
   1.8391   4.5172   4.4010   3.8664   0.1207   4.1648 
   2.3218   4.5172   1.7265   1.0541  -0.0697   1.5121 
   1.8391   4.7302   1.6580   3.3671   0.8625   3.2765 
   1.9877   4.5129   2.2755   1.6762  -0.1054   2.0510 
   2.1831   4.5828   1.6278   1.2719  -0.0488   1.4847 
   1.8292   4.6690   2.7607   3.9199   0.6126   3.6457 
   2.1831   4.5129   1.5556   0.8904  -0.1038   1.3638 
   1.9877   4.6690   1.9158   2.7770   0.1666   2.4789 
   1.8292   4.5828   4.1015   4.4704   0.3292   4.3355 
   1.9562   4.5689   2.5941   2.5908   0.0326   2.5931 
   2.0876   4.5689   1.8244   1.5720  -0.0484   1.7143 
   1.9562   4.6269   2.3541   2.9209   0.1417   2.6940 
   2.0000   4.5882   2.2297   2.3201   0.0224   2.2766 
   2.4391   4.5345   1.0735   0.8183   0.0254   0.9724 
   2.9218   4.7475  -0.2044  -2.9398  -0.6112   3.0338 
   2.4391   4.7475   0.7400   0.2081  -0.4969   1.0852 
   2.5877   4.5957   0.7192  -0.2054  -0.1585   0.8846 
   2.7831   4.7518   0.0583  -2.0553  -0.5894   2.3216 
   2.4292   4.6819   0.8564   0.4554  -0.3244   0.9308 
   2.7831   4.6819   0.2019  -1.7262  -0.4157   1.9717 
   2.5877   4.7518   0.4418  -0.7770  -0.5434   1.4241 
   2.4292   4.5957   0.9902   0.6978  -0.1131   0.9026 
   2.5562   4.6378   0.6981  -0.1736  -0.2492   0.9083 
   2.6876   4.6958   0.3518  -1.1959  -0.4253   1.5866 
   2.5562   4.6958   0.5977  -0.3760  -0.3920   1.0883 
   2.6000   4.6765   0.5502  -0.5773  -0.3551   1.1541 
   2.4391   4.4655   0.5641   0.4311  -0.0190   0.5118 
   2.4391   4.2525   0.5135   0.1609   0.2632   0.6440 
   2.9218   4.2525  -0.1536  -2.0626   0.2451   2.0351 
   2.4292   4.4043   0.5642   0.3955   0.0583   0.5116 
   2.5877   4.2482   0.3063  -0.5311   0.2640   0.8646 
   2.7831   4.3181   0.0744  -1.2785   0.1551   1.3444 
   2.4292   4.3181   0.5444   0.2884   0.1722   0.5582 
   2.7831   4.2482   0.0357  -1.4331   0.2568   1.5179 
   2.5877   4.4043   0.3647  -0.2694   0.0484   0.5576 
   2.5562   4.3622   0.3908  -0.2039   0.1061   0.5547 
   2.5562   4.3042   0.3708  -0.2961   0.1854   0.6618 
   2.6876   4.3042   0.1948  -0.8828   0.1794   1.0420 
   2.6000   4.3235   0.3197  -0.4586   0.1565   0.7297 
   2.9609   4.5172   0.2768  -1.8836  -0.0990   2.0434 
   2.9609   4.7302  -0.2408  -3.0970  -0.5779   3.1473 
   2.4782   4.5172   1.0406   0.6622   0.0517   0.9167 
   2.9708   4.5828   0.0963  -2.3141  -0.2402   2.4000 
   2.8123   4.6690   0.1755  -1.8434  -0.3924   2.0529 
   2.6169   4.5129   0.8296  -0.0528   0.0178   0.8578 
   2.9708   4.6690  -0.1144  -2.8096  -0.4340   2.8550 
   2.6169   4.5828   0.6938  -0.3224  -0.1373   0.9303 
   2.8123   4.5129   0.5219  -1.0784  -0.0435   1.4156 
   2.8438   4.5689   0.3425  -1.5287  -0.1727   1.7514 
   2.8438   4.6269   0.2112  -1.8226  -0.3024   2.0064 
   2.7124   4.5689   0.5613  -0.7991  -0.1339   1.2067 
   2.8000   4.5882   0.3727  -1.3790  -0.2026   1.6363 
   2.9609   4.4828  -0.0561  -1.6254  -0.0793   1.6039 
   2.4782   4.4828   0.5206   0.2971  -0.0429   0.4584 
   2.9609   4.2698  -0.1954  -2.1961   0.2177   2.1388 
   2.8123   4.4871   0.1235  -1.0236  -0.0736   1.0980 
   2.6169   4.4172   0.3325  -0.3695   0.0298   0.6104 
   2.9708   4.3310  -0.1662  -2.0747   0.1274   2.0090 
   2.6169   4.4871   0.3562  -0.2480  -0.0587   0.5358 
   2.8123   4.3310   0.0427  -1.3784   0.1354   1.4198 
   2.9708   4.4172  -0.1091  -1.8414   0.0070   1.7895 
   2.8438   4.4311   0.0569  -1.2804  -0.0033   1.3098 
   2.7124   4.4311   0.2193  -0.7389   0.0054   0.8696 
   2.8438   4.3731   0.0252  -1.4172   0.0750   1.4358 
   2.8000   4.4118   0.1013  -1.1431   0.0252   1.1978 
   0.1268   4.8766   0.0373  -0.0264  -0.0759   0.1427 
   0.4732   4.8766   0.1009   0.1856  -0.0750   0.2069 
   0.4732   5.1822   0.1031   0.1863  -0.0095   0.1625 
   0.1268   5.1822   0.0395  -0.0258  -0.0104   0.0597 
   1.1583   5.2574   0.4738   1.6747  -0.8061   2.0458 
   1.1583   4.8015   1.2235   1.0268  -0.7611   1.7415 
   1.1583   5.1194   0.7832   1.4809  -0.9806   2.1287 
   1.1583   4.9394   0.8919   0.2877  -1.1097   2.0774 
   0.6417   5.2574   0.0199   0.2580  -0.3222   0.6110 
   0.6417   4.8015   0.1430   0.3292  -0.2863   0.5724 
   0.6417   5.1194   0.2350   0.3137  -0.3387   0.6513 
   0.6417   4.9394   0.3042   0.3153  -0.3101   0.6202 
   1.0020   5.2574   0.2443   0.9656  -0.6389   1.4073 
   1.0020   4.8015   0.6169   0.4318  -0.3037   0.7598 
   1.0020   5.1194   0.4575   0.7391  -0.7135   1.3946 
   1.0020   4.9394   0.4941  -0.0560  -0.6371   1.2218 
   0.7980   5.2574   0.0762   0.4344  -0.4501   0.8770 
   0.7980   4.8015   0.4150   0.4170  -0.1037   0.4531 
   0.7980   5.1194   0.2928   0.3862  -0.4535   0.8595 
   0.7980   4.9394   0.3983   0.1716  -0.3210   0.6549 
   1.7583   5.2574  -0.0456   3.0105  -0.3131   3.0817 
   1.7583   4.8015   1.1095   4.9124   1.0692   4.8314 
   1.7583   5.1194  -0.0733   2.9704  -0.5002   3.1300 
   1.7583   4.9394   0.3385   3.5382  -0.1865   3.3971 
   1.2417   5.2574  -0.3136   1.9261  -0.5626   2.3155 
   1.2417   4.8015   1.7761   1.5714  -1.1479   2.6050 
   1.2417   5.1194  -0.0794   1.7997  -0.8466   2.3534 
   1.2417   4.9394   0.4975   0.7520  -1.2902   2.3308 
   1.6020   5.2574  -0.0465   3.0199  -0.4098   3.1251 
   1.6020   4.8015   0.7171   5.9610  -0.4749   5.6964 
   1.6020   5.1194  -0.0583   3.1354  -0.6514   3.3600 
   1.6020   4.9394   0.2097   3.7441  -0.8098   3.9044 
   1.3980   5.2574  -0.1327   2.6600  -0.5126   2.8695 
   1.3980   4.8015   0.9817   2.9475  -1.4633   3.6306 
   1.3980   5.1194  -0.0569   2.6789  -0.7563   3.0080 
   1.3980   4.9394   0.2367   2.2480  -1.1968   2.9790 
   2.3583   5.2574  -0.4393   0.9727   0.1911   1.2946 
   2.3583   4.8015   0.9098   0.8152   1.2578   2.3445 
   2.3583   5.1194   0.0613   0.9536   0.4737   1.2361 
   2.3583   4.9394   0.5251   0.8746   0.8942   1.7264 
   1.8417   5.2574   0.0921   2.8613   0.8752   3.1984 
   1.8417   4.8015   1.0399   3.6887   1.5132   4.2096 
   1.8417   5.1194   0.4086   2.8329   0.7033   2.9186 
   1.8417   4.9394   0.6248   3.0839   0.8236   3.1637 
   2.2020   5.2574  -0.2437   1.7024   0.4164   1.9730 
   2.2020   4.8015   0.8688   1.7256   1.2628   2.6490 
   2.2020   5.1194   0.1602   1.7081   0.5492   1.8906 
   2.2020   4.9394   0.5020   1.7043   0.8658   2.1331 
   1.9980   5.2574  -0.0496   2.3978   0.6741   2.6896 
   1.9980   4.8015   0.8874   2.8488   1.3344   3.4230 
   1.9980   5.1194   0.2765   2.4111   0.6166   2.5226 
   1.9980   4.9394   0.5030   2.5569   0.8090   2.7328 
   2.5268   4.8766   0.5457   0.0705   0.8521   1.5629 
   2.8732   4.8766   0.1157  -1.3627   0.6850   1.8536 
   2.8732   5.1822  -0.2553  -1.3787   0.1504   1.2969 
   2.5268   5.1822   0.2501   0.3058   0.3025   0.5951 
   0.1268   5.4060   0.0598   0.1855  -0.2160   0.4084 
   0.4732   5.4060   0.1574   0.5110  -0.2681   0.6489 
   0.4732   5.7117   0.0259   0.4715  -0.1676   0.5432 
   0.1268   5.7117  -0.0717   0.1460  -0.1154   0.2773 
   0.7268   5.4060   0.0315   0.7948  -0.5834   1.2762 
   1.0732   5.4060   0.2235   1.4349  -0.6744   1.7756 
   1.0732   5.7117  -0.0061   1.3660  -0.4767   1.5988 
   0.7268   5.7117  -0.1981   0.7259  -0.3857   1.0753 
   1.3268   5.4060  -0.4077   1.6277  -0.3992   1.9893 
   1.6732   5.4060  -0.2555   2.1350  -0.3976   2.3755 
   1.6732   5.7117  -0.2515   2.1362  -0.2409   2.3103 
   1.3268   5.7117  -0.4036   1.6289  -0.2425   1.9105 
   1.9268   5.4060  -0.2788   2.0103   0.6526   2.4407 
   2.2732   5.4060  -0.5369   1.1498   0.6746   1.8955 
   2.2732   5.7117  -0.4815   1.1665   0.4088   1.6296 
   1.9268   5.7117  -0.2233   2.0270   0.3868   2.2494 
   2.5268   5.4060   0.1826   0.7072   0.7208   1.4010 
   2.8732   5.4060  -0.1523  -0.4094   0.6464   1.1756 
   2.8732   5.7117  -0.3397  -0.4656   0.3016   0.6685 
   2.5268   5.7117  -0.0048   0.6509   0.3759   0.9224 
   0.1268   5.9354  -0.0291   0.5173  -0.2134   0.6482 
   0.4732   5.9354   0.0529   0.7906  -0.2432   0.8738 
   0.4732   6.2411  -0.0222   0.7681  -0.1588   0.8265 
   0.1268   6.2411  -0.1041   0.4948  -0.1290   0.5976 
   0.7268   5.9354  -0.2198   0.9214  -0.3755   1.2340 
   1.0732   5.9354  -0.1103   1.2864  -0.3801   1.4975 
   1.0732   6.2411  -0.1219   1.2830  -0.2674   1.4254 
   0.7268   6.2411  -0.2314   0.9180  -0.2628   1.1471 
   1.3268   5.9354  -0.4447   1.3523  -0.1383   1.6386 
   1.6732   5.9354  -0.4045   1.4862  -0.0899   1.7314 
   1.6732   6.2411  -0.2827   1.5227  -0.0486   1.6841 
   1.3268   6.2411  -0.3229   1.3888  -0.0969   1.5842 
   1.9268   5.9354  -0.3448   1.4114   0.3500   1.7220 
   2.2732   5.9354  -0.4684   0.9994   0.4032   1.4745 
   2.2732   6.2411  -0.3342   1.0396   0.2759   1.3299 
   1.9268   6.2411  -0.2106   1.4517   0.2227   1.6144 
   2.5268   5.9354  -0.0215   0.8364   0.3680   1.0604 
   2.8732   5.9354  -0.1655   0.3567   0.3562   0.7708 
   2.8732   6.2411  -0.1954   0.3477   0.2080   0.5973 
   2.5268   6.2411  -0.0515   0.8274   0.2199   0.9354 
   0.1268   6.4648  -0.0474   0.7892  -0.1242   0.8418 
   0.4732   6.4648  -0.0102   0.9131  -0.1320   0.9463 
   0.4732   6.7705  -0.0299   0.9072  -0.0937   0.9367 
   0.1268   6.7705  -0.0671   0.7833  -0.0859   0.8323 
   0.7268   6.4648  -0.2077   0.9550  -0.2024   1.1298 
   1.0732   6.4648  -0.1537   1.1349  -0.1828   1.2595 
   1.0732   6.7705  -0.1044   1.1497  -0.1273   1.2253 
   0.7268   6.7705  -0.1583   0.9699  -0.1469   1.0881 
   1.3268   6.4648  -0.3136   1.1564  -0.0477   1.3435 
   1.6732   6.4648  -0.3050   1.1850  -0.0019   1.3634 
   1.6732   6.7705  -0.1897   1.2196   0.0069   1.3247 
   1.3268   6.7705  -0.1983   1.1910  -0.0388   1.3033 
   1.9268   6.4648  -0.2230   1.1542   0.1760   1.3162 
   2.2732   6.4648  -0.2815   0.9595   0.2143   1.1864 
   2.2732   6.7705  -0.1850   0.9884   0.1541   1.1249 
   1.9268   6.7705  -0.1266   1.1832   0.1158   1.2673 
   2.5268   6.4648  -0.0358   0.9173   0.1535   0.9727 
   2.8732   6.4648  -0.0817   0.7641   0.1520   0.8499 
   2.8732   6.7705  -0.0856   0.7630   0.1047   0.8292 
   2.5268   6.7705  -0.0396   0.9161   0.1062   0.9545 
   0.1268   6.9942  -0.0284   0.9358  -0.0512   0.9545 
   0.4732   6.9942  -0.0189   0.9678  -0.0518   0.9815 
   0.4732   7.2999  -0.0205   0.9673  -0.0419   0.9804 
   0.1268   7.2999  -0.0301   0.9354  -0.0413   0.9534 
   0.7268   6.9942  -0.1269   0.9713  -0.0919   1.0527 
   1.0732   6.9942  -0.1041   1.0473  -0.0745   1.1106 
   1.0732   7.2999  -0.0603   1.0605  -0.0510   1.0954 
   0.7268   7.2999  -0.0831   0.9845  -0.0684   1.0353 
   1.3268   6.9942  -0.1766   1.0521  -0.0180   1.1510 
   1.6732   6.9942  -0.1755   1.0557   0.0118   1.1537 
   1.6732   7.2999  -0.1004   1.0782   0.0129   1.1320 
   1.3268   7.2999  -0.1015   1.0746  -0.0169   1.1292 
   1.9268   6.9942  -0.1172   1.0478   0.0740   1.1184 
   2.2732   6.9942  -0.1412   0.9680   0.0953   1.0587 
   2.2732   7.2999  -0.0876   0.9841   0.0706   1.0379 
   1.9268   7.2999  -0.0636   1.0639   0.0494   1.1004 
   2.5268   6.9942  -0.0251   0.9662   0.0524   0.9831 
   2.8732   6.9942  -0.0341   0.9360   0.0534   0.9580 
   2.8732   7.2999  -0.0317   0.9367   0.0440   0.9560 
   2.5268   7.2999  -0.0227   0.9669   0.0431   0.9813 
   0.1268   7.5236  -0.0125   0.9924  -0.0135   0.9990 
   0.4732   7.5236  -0.0131   0.9904  -0.0124   0.9973 
   0.4732   7.8293  -0.0103   0.9913  -0.0130   0.9967 
   0.1268   7.8293  -0.0097   0.9933  -0.0141   0.9985 
   0.7268   7.5236  -0.0602   0.9842  -0.0327   1.0172 
   1.0732   7.5236  -0.0525   1.0100  -0.0227   1.0380 
   1.0732   7.8293  -0.0273   1.0176  -0.0147   1.0318 
   0.7268   7.8293  -0.0350   0.9918  -0.0247   1.0106 
   1.3268   7.5236  -0.0829   1.0094  -0.0076   1.0534 
   1.6732   7.5236  -0.0830   1.0092   0.0081   1.0532 
   1.6732   7.8293  -0.0435   1.0210   0.0080   1.0435 
   1.3268   7.8293  -0.0434   1.0213  -0.0076   1.0437 
   1.9268   7.5236  -0.0535   1.0091   0.0230   1.0376 
   2.2732   7.5236  -0.0614   0.9825   0.0334   1.0163 
   2.2732   7.8293  -0.0352   0.9904   0.0252   1.0094 
   1.9268   7.8293  -0.0272   1.0170   0.0148   1.0311 
   2.5268   7.5236  -0.0139   0.9895   0.0112   0.9967 
   2.8732   7.5236  -0.0125   0.9941   0.0126   1.0007 
   2.8732   7.8293  -0.0092   0.9951   0.0140   1.0000 
   2.5268   7.8293  -0.0105   0.9905   0.0127   0.9960 
   0.1268   8.0531  -0.0043   1.0045   0.0005   1.0066 
   0.4732   8.0531  -0.0062   0.9979   0.0018   1.0011 
   0.4732   8.3587  -0.0030   0.9989  -0.0002   1.0004 
   0.1268   8.3587  -0.0010   1.0055  -0.0015   1.0060 
   0.7268   8.0531  -0.0220   0.9931  -0.0071   1.0043 
   1.0732   8.0531  -0.0201   0.9993  -0.0021   1.0095 
   1.0732   8.3587  -0.0074   1.0031  -0.0001   1.0068 
   0.7268   8.3587  -0.0093   0.9969  -0.0052   1.0016 
   1.3268   8.0531  -0.0309   0.9980  -0.0034   1.0138 
   1.6732   8.0531  -0.0310   0.9977   0.0041   1.0136 
   1.6732   8.3587  -0.0121   1.0034   0.0040   1.0095 
   1.3268   8.3587  -0.0120   1.0037  -0.0035   1.0097 
   1.9268   8.0531  -0.0197   0.9989   0.0022   1.0089 
   2.2732   8.0531  -0.0216   0.9926   0.0072   1.0037 
   2.2732   8.3587  -0.0091   0.9964   0.0052   1.0010 
   1.9268   8.3587  -0.0072   1.0026   0.0003   1.0063 
   2.5268   8.0531  -0.0062   0.9977  -0.0024   1.0008 
   2.8732   8.0531  -0.0039   1.0051  -0.0011   1.0071 
   2.8732   8.3587  -0.0007   1.0061   0.0012   1.0065 
   2.5268   8.3587  -0.0029   0.9986  -0.0000   1.0001 
   0.1268   8.5825   0.0001   1.0019   0.0021   1.0019 
   0.4732   8.5825  -0.0008   0.9991   0.0033   0.9995 
   0.4732   8.8881   0.0024   1.0000   0.0024   0.9989 
   0.1268   8.8881   0.0032   1.0028   0.0012   1.0012 
   0.7268   8.5825  -0.0017   0.9979  -0.0004   0.9988 
   1.0732   8.5825  -0.0017   0.9980   0.0032   0.9989 
   1.0732   8.8881   0.0074   1.0008   0.0032   0.9971 
   0.7268   8.8881   0.0074   1.0007  -0.0004   0.9970 
   1.3268   8.5825  -0.0033   0.9976  -0.0024   0.9992 
   1.6732   8.5825  -0.0033   0.9975   0.0026   0.9992 
   1.6732   8.8881   0.0094   1.0013   0.0026   0.9966 
   1.3268   8.8881   0.0094   1.0014  -0.0024   0.9967 
   1.9268   8.5825  -0.0014   0.9980  -0.0031   0.9987 
   2.2732   8.5825  -0.0015   0.9979   0.0005   0.9986 
   2.2732   8.8881   0.0076   1.0006   0.0004   0.9968 
   1.9268   8.8881   0.0076   1.0007  -0.0032   0.9969 
   2.5268   8.5825  -0.0007   0.9990  -0.0034   0.9994 
   2.8732   8.5825   0.0002   1.0020  -0.0022   1.0019 
   2.8732   8.8881   0.0034   1.0029  -0.0013   1.0013 
   2.5268   8.8881   0.0025   1.0000  -0.0025   0.9988 
   151   159   149 
   206   225   200 
   215   248   246 
   292   294   270 
   564   563   545 
   451   448   196 
   551   549   548 
   615   613   612 
   259   255   253 
   514   512   504 
   233   229   198 
   583   584   585 
   271   270   289 
   316   321   169 
   153   256   259 
    80    75    77 
   451   196   195 
   199   143   149 
   287   279   255 
   205   225   206 
   199   208   204 
   125   122   103 
   253   255   279 
   275   283   288 
   293   296   299 
   298   273   267 
   296   288   297 
   105   102    83 
   104   101   103 
   210   213   237 
   230   209   200 
   217   483   212 
   641   659   642 
   493   484   494 
   540   541   542 
   663   645   664 
   495   499   501 
   646   640   643 
   610   605   604 
   630   624   627 
   604   585   590 
   564   570   565 
   540   491   543 
   568   571   569 
   364   361   362 
   499   495   543 
   356   363   362 
   153   253   157 
   363   357   365 
   277   289   294 
   353   366   356 
   510   517   509 
   411   380   415 
   514   517   518 
   624   605   610 
   588   587   569 
   671   668   649 
   594   611   589 
   574   569   571 
   587   584   570 
   573   572   575 
   429   425   394 
   339   338   336 
   262   347   265 
   503   548   511 
   463   617   616 
   128   125   127 
   372   369   332 
   173   175   169 
   335   327   330 
   129   126   112 
   181   161   163 
    66    68    65 
    70    73    76 
   136   134   135 
   115   114   117 
   117   114    95 
    88   105    83 
   130   129   111 
    83   102   101 
   122   121   103 
   101   102   103 
    85    88    82 
    83   101    84 
    63    68    85 
    92    89    90 
    22     4     3 
    43    42    45 
    26     7    12 
    72    67    66 
    62    63    64 
    32    26    29 
    56    53    54 
    11    12    10 
     2     4     1 
    68    62    65 
    50    31    53 
   102   105   103 
   162   131   182 
   110   109    91 
   106   109   112 
    89    86    67 
    43    44    42 
   147   153   155 
   142   152   143 
   303   254   251 
   258   254   257 
   153   145   256 
   307   310   304 
   303   315   306 
   358   343   361 
   325   319   322 
   324   320   318 
   277   249   289 
   320   324   317 
   309   304   310 
   335   336   332 
   280   277   294 
   352   350   351 
   252   258   277 
   311   305   312 
   275   284   283 
   286   259   282 
   278   281   285 
   259   256   261 
   253   250   157 
   202   205   206 
   159   155   153 
   165   167   175 
   212   241   247 
   642   659   241 
   250   149   157 
   276   281   202 
   234   207   230 
   204   143   199 
   197   225   205 
   200   209   206 
   104   121   224 
   228   230   200 
   295   264   299 
   219   216   220 
   288   283   291 
   287   285   279 
   273   496   269 
   297   288   291 
   494   484   492 
   293   213   296 
   488   490   498 
   498   490   497 
   217   212   243 
   483   238   212 
   290   216   293 
   218   240   242 
   238   542   559 
   539   540   542 
   246   240   221 
   214   484   217 
   622   639   241 
   604   603   585 
   599   581   600 
   605   603   604 
   603   581   586 
   563   561   560 
   623   621   620 
   601   599   600 
   485   484   493 
   269   500   264 
   540   543   541 
   543   545   546 
   257   249   277 
   501   499   491 
   580   579   561 
   572   571   554 
   583   585   586 
   584   590   585 
   644   643   625 
   603   600   581 
   607   610   604 
   624   623   606 
   565   570   584 
   567   550   549 
   355   346   358 
   544   487   547 
   513   511   517 
   548   549   547 
   516   355   360 
   516   512   518 
   350   352   358 
   364   362   365 
   272   268   263 
   272   271   268 
   347   350   344 
   348   345   307 
   265   347   344 
   262   249   302 
   348   349   345 
   350   347   351 
   304   348   307 
   342   347   262 
   309   301   304 
   349   352   351 
   348   340   343 
   366   314   327 
   413   421   418 
   403   404   396 
   379   407   387 
   354   368   504 
   396   528   403 
   552   553   554 
   529   533   534 
   503   523   551 
   397   403   399 
   397   428   403 
   373   370   426 
   423   429   394 
   359   371   354 
   367   372   329 
   547   549   550 
   548   503   551 
   511   513   505 
   394   399   532 
   591   588   569 
   570   567   569 
   609   610   607 
   590   587   589 
   572   574   571 
   591   589   588 
   658   652   655 
   614   628   609 
   403   528   399 
   421   430   427 
   526   532   534 
   530   522   529 
   612   613   614 
   631   629   628 
   558   576   575 
   637   656   655 
   618   636   635 
   652   651   633 
   668   667   649 
   654   651   652 
   638   633   635 
   595   592   573 
   658   655   656 
   463   636   617 
   616   617   615 
   635   633   632 
   655   638   637 
   463   616   597 
   553   558   575 
   441   438   443 
   596   463   597 
   578   573   575 
   592   593   594 
   520   522   530 
   519   552   527 
   392   395   419 
   435   437   461 
   538   519   521 
   446   195   472 
   536   537   538 
   480   468   462 
   463   577   576 
   466   469   465 
   452   474   476 
   436   433   393 
   482   479   473 
   466   467   469 
   135   134   137 
   481   479   482 
   479   481   478 
   460   478   463 
   177   179   196 
   393   398   436 
   416   421   413 
   196   193   195 
   390   384   388 
   422   400   404 
   379   444   431 
   464   462   468 
   414   415   417 
   426   423   373 
   380   411   406 
   391   388   382 
   319   336   330 
   338   329   332 
   334   408   329 
   376   370   377 
   322   319   330 
   337   331   334 
   319   339   336 
   331   333   328 
   187   189   191 
   383   189   185 
   382   412   391 
   385   416   417 
    91    90    96 
    70    72    69 
   113   111   110 
   116   114   115 
   110    91   113 
    89    71    90 
   116   111   113 
   112   109   110 
    54    55    56 
    27    28    25 
    32    29    31 
    35    36    34 
    74    73    56 
    76    71    70 
    75    76    74 
    71    89    72 
    69    52    51 
    34    33    16 
   178   135   140 
    96    93    94 
   136   190   182 
   391   390   388 
   137   134   115 
   116   113   114 
   119   120   118 
    94    93    76 
   472   119   475 
    35    54    36 
    19    18   475 
    35    57    54 
    98    79   475 
    95   114    96 
    22    21     4 
    21    24   229 
     4    21   229 
     3     4     2 
    23    41    24 
   229    61    64 
    61    44    43 
   229    64    81 
    24    21    22 
   224   198   229 
    23    24    22 
   229    44    61 
    82    84    81 
   229   104   224 
   121   104   103 
   121   124   224 
   122   124   121 
   124   141   224 
   123   124   122 
   141   144   224 
    82    81    63 
   229   101   104 
   144   141   143 
   198   201   227 
    64    61    62 
   229    81    84 
    81    64    63 
   229    84   101 
    82    83    84 
    82    88    83 
   105   108   103 
   152   150   160 
   125   123   122 
   141   124   123 
   141   142   143 
   141   123   142 
   151   149   143 
   142   123   150 
   126   127   125 
   128   123   125 
    63    85    82 
    68    67    85 
    86    92    87 
   108   125   103 
    45    42    23 
    44    41    42 
    27    45    28 
    47    52    66 
    48    65    43 
    62    61    43 
    65    62    43 
    68    63    62 
     5     3     2 
    25    28    23 
     8    25     3 
    23    42    41 
    25    23    22 
    28    45    23 
     3    25    22 
    12     9    10 
     8     3     5 
     8     7    25 
    46    47    45 
    45    48    43 
    66    67    68 
    27    46    45 
    47    66    65 
    48    47    65 
    69    72    66 
    85    86    88 
    85    67    86 
    25     7    26 
     8     5     7 
    45    47    48 
    52    69    66 
    12     6     9 
     7     5     6 
    29    26    12 
    27    25    26 
    29    12    30 
     7     6    12 
    31    29    30 
    31    49    32 
    46    52    47 
    49    31    50 
    51    70    69 
    89    67    72 
    32    46    27 
    49    52    46 
    46    32    49 
    27    26    32 
   105    88    87 
   111   116   133 
   130   132   129 
   132   146   127 
   109    92    91 
    86    89    92 
   107   106   112 
   106   105    87 
   166   132   174 
   126   125   107 
   170   174   132 
   166   168   146 
   148   156   146 
   158   150   128 
   168   148   146 
   146   132   166 
   132   127   126 
   146   156   154 
   112   126   107 
   129   132   126 
    86    87    88 
    92   109    87 
   105   106   107 
    87   109   106 
   107   108   105 
   107   125   108 
   154   158   127 
   150   123   128 
   127   158   128 
   160   155   159 
   146   154   127 
   156   160   154 
   157   159   153 
   156   148   155 
   174   176   166 
   147   165   145 
   260   261   256 
   252   282   261 
   251   260   256 
   258   257   277 
   260   251   254 
   167   148   168 
   145   165   251 
   315   320   306 
   165   147   167 
   155   148   147 
   256   145   251 
   153   147   145 
   176   168   166 
   167   147   148 
   175   167   168 
   315   318   320 
   170   176   174 
   175   168   176 
   175   173   165 
   321   316   319 
   173   321   318 
   323   317   324 
   324   326   323 
   324   318   326 
   318   315   173 
   303   251   165 
   165   315   303 
   165   173   315 
   303   306   308 
   320   310   313 
   312   306   320 
   312   320   313 
   320   309   310 
   317   301   309 
   320   317   309 
   323   314   317 
   317   314   301 
   335   332   369 
   361   343   340 
   325   323   326 
   310   311   313 
   302   249   305 
   340   301   314 
   340   304   301 
   308   305   257 
   311   307   302 
   311   302   305 
   345   351   342 
   303   308   254 
   306   312   308 
   311   312   313 
   305   308   312 
   280   252   277 
   261   260   258 
   261   258   252 
   260   254   258 
   298   286   280 
   286   255   259 
   308   257   254 
   305   249   257 
   210   275   288 
   278   284   275 
   280   286   282 
   283   284   287 
   278   197   205 
   225   228   200 
   197   278   275 
   279   250   253 
   205   281   278 
   202   206   208 
   278   285   284 
   281   250   285 
   286   287   255 
   285   250   279 
   283   287   286 
   284   285   287 
   149   159   157 
   160   156   155 
   153   259   253 
   261   282   259 
   150   152   142 
   150   158   160 
   152   160   159 
   158   154   160 
   250   276   149 
   204   209   207 
   152   151   143 
   152   159   151 
   276   202   199 
   281   205   202 
   149   276   199 
   250   281   276 
   234   203   207 
   201   143   204 
   202   208   199 
   206   209   208 
   230   207   209 
   201   144   143 
   209   204   208 
   207   201   204 
   144   198   224 
   144   201   198 
   203   201   207 
   203   227   201 
    24    41   229 
   229    41    44 
   235   227   203 
   233   198   227 
     4   229     1 
   232   226   233 
   232   233   235 
   226   229   233 
   231   232   235 
   233   227   235 
   228   234   230 
   235   203   234 
   275   210   197 
   240   222   221 
   231   223   232 
   236   226   223 
   234   246   231 
   223   226   232 
   247   244   245 
   244   226   236 
   245   244   236 
   247   245   248 
   236   223   231 
   247   248   243 
   231   235   234 
   215   243   248 
   248   239   246 
   239   231   246 
   239   236   231 
   245   239   248 
   245   236   239 
   237   242   228 
   246   234   228 
   228   242   246 
   228   225   237 
   197   237   225 
   213   219   237 
   299   297   300 
   283   286   298 
   264   293   299 
   213   210   296 
   300   297   291 
   299   296   297 
   242   240   246 
   242   237   218 
   197   210   237 
   288   296   210 
   492   211   290 
   214   220   211 
   290   293   264 
   216   213   293 
   492   290   264 
   211   216   290 
   496   273   266 
   492   484   211 
   264   500   492 
   484   483   217 
   492   500   494 
   491   540   485 
   211   484   214 
   493   491   485 
   486   485   540 
   483   484   485 
   218   222   240 
   214   217   221 
   211   220   216 
   214   222   220 
   219   218   237 
   219   222   218 
   216   219   213 
   220   222   219 
   212   247   243 
   241   244   247 
   221   215   246 
   217   243   215 
   212   238   241 
   539   542   238 
   214   221   222 
   217   215   221 
   238   559   241 
   542   541   559 
   559   562   241 
   559   541   560 
   483   486   238 
   483   485   486 
   486   539   238 
   486   540   539 
   582   599   241 
   582   581   599 
   599   602   241 
   599   601   602 
   562   579   241 
   562   561   579 
   579   582   241 
   579   581   582 
   602   619   241 
   602   601   620 
   619   622   241 
   603   601   600 
   639   642   241 
   660   663   661 
   659   662   241 
   660   641   663 
   639   640   642 
   639   622   621 
   659   661   662 
   626   621   623 
   622   619   621 
   642   640   641 
   639   621   640 
   619   620   621 
   619   602   620 
   601   606   620 
   626   643   621 
   659   660   661 
   659   641   660 
   641   640   646 
   640   621   643 
   644   646   643 
   663   641   646 
   663   666   661 
   605   606   603 
   623   620   606 
   624   625   623 
   623   625   626 
   581   583   586 
   563   541   546 
   585   603   586 
   606   601   603 
   580   561   583 
   562   559   561 
   581   580   583 
   581   579   580 
   563   560   541 
   561   559   560 
   541   543   546 
   491   493   501 
   545   563   546 
   566   561   563 
   583   566   565 
   583   561   566 
   494   501   493 
   507   489   509 
   502   497   501 
   490   510   509 
   494   500   502 
   496   488   498 
   490   489   497 
   507   515   547 
   543   544   545 
   495   489   487 
   547   487   507 
   544   495   487 
   491   499   543 
   501   497   495 
   489   495   497 
   544   543   495 
   583   565   584 
   566   563   565 
   630   625   624 
   643   626   625 
   646   645   663 
   672   671   654 
   663   665   666 
   647   644   625 
   645   646   644 
   663   664   665 
   650   644   647 
   590   607   604 
   624   606   605 
   563   564   565 
   568   549   571 
   589   607   590 
   608   611   609 
   608   609   607 
   627   624   610 
   664   667   670 
   664   645   650 
   664   670   665 
   651   654   648 
   650   645   644 
   648   649   650 
   667   664   650 
   628   627   610 
   629   647   630 
   629   630   627 
   647   625   630 
   544   547   550 
   515   511   547 
   545   550   564 
   545   544   550 
   564   567   570 
   564   550   567 
   569   587   570 
   590   584   587 
   488   508   510 
   516   360   357 
   490   509   489 
   517   515   507 
   489   507   487 
   509   517   507 
   510   518   517 
   508   263   341 
   510   516   518 
   360   365   357 
   508   355   516 
   358   361   364 
   344   346   341 
   350   358   346 
   360   364   365 
   360   358   364 
   272   263   266 
   268   344   341 
   355   341   346 
   263   268   341 
   510   508   516 
   510   490   488 
   360   355   358 
   508   341   355 
   263   488   266 
   269   264   295 
   266   488   496 
   263   508   488 
   498   502   496 
   502   501   494 
   496   502   500 
   498   497   502 
   295   267   269 
   295   299   300 
   273   269   267 
   496   500   269 
   300   298   267 
   274   266   273 
   274   272   266 
   271   289   265 
   274   271   272 
   270   294   289 
   271   265   268 
   289   262   265 
   283   298   291 
   267   295   300 
   274   270   271 
   274   273   292 
   273   298   292 
   300   291   298 
   252   280   282 
   294   298   280 
   274   292   270 
   298   294   292 
   249   262   289 
   302   342   262 
   345   342   302 
   351   347   342 
   302   307   345 
   311   310   307 
   265   344   268 
   350   346   344 
   345   349   351 
   349   358   352 
   343   349   348 
   343   358   349 
   361   353   362 
   340   314   353 
   361   340   353 
   348   304   340 
   374   366   369 
   353   314   366 
   372   375   369 
   366   327   335 
   363   356   359 
   362   353   356 
   356   374   359 
   356   366   374 
   376   378   375 
   359   374   375 
   367   376   372 
   373   423   368 
   359   375   378 
   374   369   375 
   329   372   332 
   376   375   372 
   418   367   329 
   418   426   367 
   418   421   427 
   421   416   428 
   403   428   422 
   430   421   428 
   410   424   416 
   428   416   424 
   403   422   404 
   428   424   422 
   419   400   424 
   422   424   400 
   367   370   376 
   418   427   426 
   367   426   370 
   427   430   429 
   371   377   373 
   426   427   429 
   426   429   423 
   425   399   394 
   430   425   429 
   430   428   397 
   425   397   399 
   425   430   397 
   524   394   532 
   420   423   394 
   534   532   528 
   399   528   532 
   524   420   394 
   368   423   420 
   526   524   532 
   368   420   524 
   357   354   512 
   368   524   504 
   526   504   524 
   512   354   504 
   378   377   359 
   378   376   377 
   354   371   368 
   377   370   373 
   362   363   365 
   357   512   516 
   368   371   373 
   359   377   371 
   359   357   363 
   359   354   357 
   513   514   506 
   518   512   514 
   514   513   517 
   505   503   511 
   513   506   505 
   514   504   506 
   506   526   525 
   506   504   526 
   506   525   505 
   551   531   552 
   525   523   505 
   531   529   527 
   505   523   503 
   551   552   554 
   547   511   548 
   515   517   511 
   567   568   569 
   567   549   568 
   611   614   609 
   629   627   628 
   650   649   667 
   650   647   648 
   667   668   670 
   649   648   654 
   668   669   670 
   614   631   628 
   628   610   609 
   629   648   647 
   654   652   653 
   574   591   569 
   589   587   588 
   589   608   607 
   589   611   608 
   632   631   614 
   634   651   629 
   629   651   648 
   629   631   634 
   675   672   653 
   669   668   671 
   672   654   653 
   671   649   654 
   632   634   631 
   633   651   634 
   671   674   669 
   593   598   615 
   591   592   594 
   612   614   611 
   613   632   614 
   572   554   553 
   571   549   554 
   531   527   552 
   529   522   521 
   549   551   554 
   523   533   531 
   573   592   574 
   594   589   591 
   525   533   523 
   525   526   533 
   523   531   551 
   533   529   531 
   530   534   528 
   533   526   534 
   534   530   529 
   528   520   530 
   529   521   527 
   555   553   552 
   521   519   527 
   555   552   519 
   535   435   536 
   522   538   521 
   557   576   558 
   555   519   538 
   535   438   435 
   558   553   555 
   576   578   575 
   597   598   595 
   575   572   553 
   573   574   572 
   574   592   591 
   573   578   595 
   594   612   611 
   615   618   613 
   618   632   613 
   633   634   632 
   673   672   675 
   674   671   672 
   672   673   674 
   618   635   632 
   636   637   635 
   657   658   656 
   652   633   655 
   594   593   612 
   592   595   593 
   577   595   578 
   598   593   595 
   593   615   612 
   598   597   615 
   637   638   635 
   655   633   638 
   653   658   675 
   653   652   658 
   675   678   673 
   675   658   676 
   675   676   678 
   463   656   637 
   676   677   678 
   463   657   656 
   618   617   636 
   618   615   617 
   637   636   463 
   676   658   657 
   458   576   557 
   556   555   537 
   458   463   576 
   578   576   577 
   595   596   597 
   595   577   596 
   597   616   615 
   463   596   577 
   466   460   467 
   556   458   557 
   538   537   555 
   432   467   463 
   555   556   558 
   537   536   458 
   556   557   558 
   556   537   458 
   461   432   435 
   536   538   535 
   536   432   458 
   536   435   432 
   676   657   463 
   470   479   478 
   676   463   677 
   458   432   463 
   468   469   437 
   441   435   438 
   468   437   441 
   469   467   461 
   433   438   535 
   433   436   442 
   443   464   441 
   437   435   441 
   402   393   396 
   433   535   520 
   522   535   538 
   522   520   535 
   402   396   404 
   393   520   396 
   396   520   528 
   393   433   520 
   400   401   404 
   401   398   402 
   440   442   436 
   393   402   398 
   439   436   398 
   442   438   433 
   439   440   436 
   443   438   442 
   401   395   398 
   440   443   442 
   431   459   439 
   459   471   476 
   404   401   402 
   400   419   401 
   392   431   395 
   439   398   395 
   444   471   459 
   395   401   419 
   407   392   419 
   431   439   395 
   379   431   392 
   459   440   439 
   444   459   431 
   476   474   480 
   459   462   434 
   473   479   470 
   443   434   464 
   462   476   480 
   440   434   443 
   440   459   434 
   441   464   468 
   434   462   464 
   469   461   437 
   467   432   461 
   467   460   463 
   457   465   473 
   469   468   465 
   457   466   465 
   457   460   466 
   468   473   465 
   480   482   473 
   457   470   460 
   457   473   470 
   459   476   462 
   471   452   476 
   468   480   473 
   474   452   456 
   390   381   384 
   456   455   474 
   455   449   480 
   477   446   481 
   477   481   482 
   446   475   481 
   470   478   460 
   480   449   482 
   451   446   477 
   481   475   478 
   451   195   446 
   193   140   139 
   446   472   475 
   119   118   475 
   455   448   451 
   447   453   471 
   449   455   451 
   480   474   455 
   450   384   445 
   448   455   456 
   477   449   451 
   477   482   449 
   456   454   448 
   196   179   180 
   448   454   445 
   456   452   453 
   384   381   445 
   390   386   381 
   445   196   448 
   445   381   177 
   187   179   185 
   177   196   445 
   191   183   184 
   180   193   196 
   416   385   389 
   185   177   386 
   386   177   381 
   185   179   177 
   454   450   445 
   387   388   384 
   453   447   450 
   447   384   450 
   384   447   387 
   450   454   453 
   456   453   454 
   452   471   453 
   407   379   392 
   387   447   444 
   387   444   379 
   447   471   444 
   387   407   388 
   407   419   410 
   424   410   419 
   382   388   407 
   410   416   412 
   415   408   411 
   382   410   412 
   382   407   410 
   417   409   385 
   163   161   169 
   413   417   416 
   405   418   329 
   329   408   405 
   329   338   334 
   417   415   409 
   417   413   414 
   415   414   408 
   413   418   405 
   405   414   413 
   405   408   414 
   336   338   332 
   337   319   333 
   339   337   338 
   331   408   334 
   314   322   327 
   322   323   325 
   366   335   369 
   330   336   335 
   327   322   330 
   314   323   322 
   337   333   331 
   319   316   333 
   338   337   334 
   339   319   337 
   408   331   411 
   333   316   328 
   411   328   406 
   411   331   328 
   181   163   183 
   181   189   380 
   318   321   326 
   321   319   325 
   326   321   325 
   169   171   163 
   173   169   321 
   175   176   171 
   170   172   176 
   169   175   171 
   190   192   182 
   181   328   161 
   316   161   328 
   316   169   161 
   184   183   164 
   163   164   183 
   386   391   389 
   380   406   181 
   328   181   406 
   183   191   181 
   383   380   189 
   409   415   380 
   389   385   383 
   409   380   383 
   416   389   412 
   386   390   391 
   386   389   185 
   385   409   383 
   185   389   383 
   391   412   389 
   186   188   192 
   180   179   187 
   189   187   185 
   188   180   187 
   186   192   190 
   188   187   192 
   136   186   190 
   178   188   186 
   113    96   114 
   113    91    96 
   136   133   134 
   111   129   112 
   134   133   116 
   131   170   132 
   187   191   192 
   189   181   191 
   184   164   162 
   163   171   164 
   192   184   182 
   192   191   184 
   162   170   131 
   172   171   176 
   162   172   170 
   164   171   172 
   130   111   133 
   112   110   111 
   136   131   133 
   131   132   130 
   133   131   130 
   136   182   131 
   184   162   182 
   164   172   162 
    49    51    52 
    56    73    51 
    93    71    76 
    90    91    92 
    72    70    71 
    51    73    70 
    93    90    71 
    93    96    90 
    11    30    12 
    13    11    10 
    13    16    11 
    51    50    53 
    51    49    50 
    30    33    31 
    30    11    33 
    16    33    11 
    14    16    13 
    15    34    16 
    51    53    56 
    31    33    36 
    34    36    33 
    53    31    36 
    75    74    77 
    76    73    74 
    99   117   100 
    95    96    94 
    17    20    15 
    54    53    36 
    37    40    35 
    55    74    56 
    15    16    14 
    15    37    34 
    37    20    38 
    20    17    18 
    15    14    17 
    19    20    18 
    37    15    20 
    20    19    38 
    60    77    55 
    39    57    40 
    59    77    60 
    37    35    34 
    40    57    35 
    57    55    54 
    77    74    55 
    78    80    77 
    94    76    75 
   100   117    95 
    94   100    95 
   137   115   120 
   134   116   115 
   186   135   178 
   186   136   135 
   178   180   188 
   178   193   180 
   119   138   137 
   193   178   140 
    57    60    55 
    57    59    60 
   120   117   118 
   120   115   117 
    75    80    97 
    94    75    97 
   118    99   475 
   118   117    99 
   119   137   120 
   140   135   137 
   138   119   472 
   139   140   137 
   194   139   472 
   194   193   139 
   195   194   472 
   195   193   194 
    99    98   475 
    99   100    98 
   139   138   472 
   139   137   138 
    78    59   475 
    78    77    59 
    79    78   475 
    79    80    78 
    98    97    79 
    97   100    94 
    79    97    80 
    98   100    97 
    38    19   475 
    39    40    37 
    59    58   475 
    58    57    39 
    39    38   475 
    39    37    38 
   475    58    39 
    59    57    58 
